9
0 78 30 57 24 55 94 63 78 
88 0 35 75 54 58 81 4 58 
52 24 0 75 51 58 4 40 49 
88 52 12 0 15 43 19 1 45 
34 83 62 17 0 49 22 40 66 
31 74 2 56 30 0 58 7 32 
95 42 77 78 13 73 0 92 48 
98 33 12 32 92 55 20 0 71 
2 24 35 16 43 67 80 23 0 
